; benchmark generated from python API
(set-info :status unknown)
(declare-fun cell_1_1 () Int)
(declare-fun cell_2_1 () Int)
(declare-fun cell_3_1 () Int)
(declare-fun cell_4_1 () Int)
(declare-fun cell_5_1 () Int)
(declare-fun cell_6_1 () Int)
(declare-fun cell_7_1 () Int)
(declare-fun cell_8_1 () Int)
(declare-fun cell_9_1 () Int)
(declare-fun cell_1_2 () Int)
(declare-fun cell_2_2 () Int)
(declare-fun cell_3_2 () Int)
(declare-fun cell_4_2 () Int)
(declare-fun cell_5_2 () Int)
(declare-fun cell_6_2 () Int)
(declare-fun cell_7_2 () Int)
(declare-fun cell_8_2 () Int)
(declare-fun cell_9_2 () Int)
(declare-fun cell_1_3 () Int)
(declare-fun cell_2_3 () Int)
(declare-fun cell_3_3 () Int)
(declare-fun cell_4_3 () Int)
(declare-fun cell_5_3 () Int)
(declare-fun cell_6_3 () Int)
(declare-fun cell_7_3 () Int)
(declare-fun cell_8_3 () Int)
(declare-fun cell_9_3 () Int)
(declare-fun cell_1_4 () Int)
(declare-fun cell_2_4 () Int)
(declare-fun cell_3_4 () Int)
(declare-fun cell_4_4 () Int)
(declare-fun cell_5_4 () Int)
(declare-fun cell_6_4 () Int)
(declare-fun cell_7_4 () Int)
(declare-fun cell_8_4 () Int)
(declare-fun cell_9_4 () Int)
(declare-fun cell_1_5 () Int)
(declare-fun cell_2_5 () Int)
(declare-fun cell_3_5 () Int)
(declare-fun cell_4_5 () Int)
(declare-fun cell_5_5 () Int)
(declare-fun cell_6_5 () Int)
(declare-fun cell_7_5 () Int)
(declare-fun cell_8_5 () Int)
(declare-fun cell_9_5 () Int)
(declare-fun cell_1_6 () Int)
(declare-fun cell_2_6 () Int)
(declare-fun cell_3_6 () Int)
(declare-fun cell_4_6 () Int)
(declare-fun cell_5_6 () Int)
(declare-fun cell_6_6 () Int)
(declare-fun cell_7_6 () Int)
(declare-fun cell_8_6 () Int)
(declare-fun cell_9_6 () Int)
(declare-fun cell_1_7 () Int)
(declare-fun cell_2_7 () Int)
(declare-fun cell_3_7 () Int)
(declare-fun cell_4_7 () Int)
(declare-fun cell_5_7 () Int)
(declare-fun cell_6_7 () Int)
(declare-fun cell_7_7 () Int)
(declare-fun cell_8_7 () Int)
(declare-fun cell_9_7 () Int)
(declare-fun cell_1_8 () Int)
(declare-fun cell_2_8 () Int)
(declare-fun cell_3_8 () Int)
(declare-fun cell_4_8 () Int)
(declare-fun cell_5_8 () Int)
(declare-fun cell_6_8 () Int)
(declare-fun cell_7_8 () Int)
(declare-fun cell_8_8 () Int)
(declare-fun cell_9_8 () Int)
(declare-fun cell_1_9 () Int)
(declare-fun cell_2_9 () Int)
(declare-fun cell_3_9 () Int)
(declare-fun cell_4_9 () Int)
(declare-fun cell_5_9 () Int)
(declare-fun cell_6_9 () Int)
(declare-fun cell_7_9 () Int)
(declare-fun cell_8_9 () Int)
(declare-fun cell_9_9 () Int)
(assert
 (let (($x3344 (= cell_1_1 9)))
 (let (($x3538 (= cell_1_1 8)))
 (let (($x5020 (= cell_1_1 7)))
 (let (($x9978 (= cell_1_1 6)))
 (let (($x2909 (= cell_1_1 5)))
 (let (($x3713 (= cell_1_1 4)))
 (let (($x5226 (= cell_1_1 3)))
 (let (($x128 (= cell_1_1 2)))
 (let (($x7972 (= cell_1_1 1)))
 (or $x7972 $x128 $x5226 $x3713 $x2909 $x9978 $x5020 $x3538 $x3344)))))))))))
(assert
 (let (($x3776 (= cell_2_1 9)))
 (let (($x5766 (= cell_2_1 8)))
 (let (($x9946 (= cell_2_1 7)))
 (let (($x5460 (= cell_2_1 6)))
 (let (($x5274 (= cell_2_1 5)))
 (let (($x2841 (= cell_2_1 4)))
 (let (($x5685 (= cell_2_1 3)))
 (let (($x8219 (= cell_2_1 2)))
 (let (($x521 (= cell_2_1 1)))
 (or $x521 $x8219 $x5685 $x2841 $x5274 $x5460 $x9946 $x5766 $x3776)))))))))))
(assert
 (let (($x5930 (= cell_3_1 9)))
 (let (($x6293 (= cell_3_1 8)))
 (let (($x8346 (= cell_3_1 7)))
 (let (($x8540 (= cell_3_1 6)))
 (let (($x3890 (= cell_3_1 5)))
 (let (($x2355 (= cell_3_1 4)))
 (let (($x9780 (= cell_3_1 3)))
 (let (($x5111 (= cell_3_1 2)))
 (let (($x8382 (= cell_3_1 1)))
 (or $x8382 $x5111 $x9780 $x2355 $x3890 $x8540 $x8346 $x6293 $x5930)))))))))))
(assert
 (let (($x1275 (= cell_4_1 9)))
 (let (($x2631 (= cell_4_1 8)))
 (let (($x4628 (= cell_4_1 7)))
 (let (($x6121 (= cell_4_1 6)))
 (let (($x6830 (= cell_4_1 5)))
 (let (($x4499 (= cell_4_1 4)))
 (let (($x1699 (= cell_4_1 3)))
 (let (($x1455 (= cell_4_1 2)))
 (let (($x10126 (= cell_4_1 1)))
 (or $x10126 $x1455 $x1699 $x4499 $x6830 $x6121 $x4628 $x2631 $x1275)))))))))))
(assert
 (let (($x10174 (= cell_5_1 9)))
 (let (($x4737 (= cell_5_1 8)))
 (let (($x9293 (= cell_5_1 7)))
 (let (($x266 (= cell_5_1 6)))
 (let (($x6494 (= cell_5_1 5)))
 (let (($x210 (= cell_5_1 4)))
 (let (($x2376 (= cell_5_1 3)))
 (let (($x5655 (= cell_5_1 2)))
 (let (($x2133 (= cell_5_1 1)))
 (or $x2133 $x5655 $x2376 $x210 $x6494 $x266 $x9293 $x4737 $x10174)))))))))))
(assert
 (let (($x9040 (= cell_6_1 9)))
 (let (($x4363 (= cell_6_1 8)))
 (let (($x2092 (= cell_6_1 7)))
 (let (($x3330 (= cell_6_1 6)))
 (let (($x9550 (= cell_6_1 5)))
 (let (($x5242 (= cell_6_1 4)))
 (let (($x6150 (= cell_6_1 3)))
 (let (($x5412 (= cell_6_1 2)))
 (let (($x537 (= cell_6_1 1)))
 (or $x537 $x5412 $x6150 $x5242 $x9550 $x3330 $x2092 $x4363 $x9040)))))))))))
(assert
 (let (($x361 (= cell_7_1 9)))
 (let (($x1428 (= cell_7_1 8)))
 (let (($x5100 (= cell_7_1 7)))
 (let (($x239 (= cell_7_1 6)))
 (let (($x3695 (= cell_7_1 5)))
 (let (($x6091 (= cell_7_1 4)))
 (let (($x4661 (= cell_7_1 3)))
 (let (($x4342 (= cell_7_1 2)))
 (let (($x238 (= cell_7_1 1)))
 (or $x238 $x4342 $x4661 $x6091 $x3695 $x239 $x5100 $x1428 $x361)))))))))))
(assert
 (let (($x9170 (= cell_8_1 9)))
 (let (($x3578 (= cell_8_1 8)))
 (let (($x4336 (= cell_8_1 7)))
 (let (($x6412 (= cell_8_1 6)))
 (let (($x9421 (= cell_8_1 5)))
 (let (($x5619 (= cell_8_1 4)))
 (let (($x4304 (= cell_8_1 3)))
 (let (($x9982 (= cell_8_1 2)))
 (let (($x4431 (= cell_8_1 1)))
 (or $x4431 $x9982 $x4304 $x5619 $x9421 $x6412 $x4336 $x3578 $x9170)))))))))))
(assert
 (let (($x9007 (= cell_9_1 9)))
 (let (($x7001 (= cell_9_1 8)))
 (let (($x24 (= cell_9_1 7)))
 (let (($x7204 (= cell_9_1 6)))
 (let (($x448 (= cell_9_1 5)))
 (let (($x1070 (= cell_9_1 4)))
 (let (($x1258 (= cell_9_1 3)))
 (let (($x766 (= cell_9_1 2)))
 (let (($x3467 (= cell_9_1 1)))
 (or $x3467 $x766 $x1258 $x1070 $x448 $x7204 $x24 $x7001 $x9007)))))))))))
(assert
 (let (($x4898 (= cell_1_2 9)))
 (let (($x8098 (= cell_1_2 8)))
 (let (($x901 (= cell_1_2 7)))
 (let (($x9668 (= cell_1_2 6)))
 (let (($x8534 (= cell_1_2 5)))
 (let (($x7628 (= cell_1_2 4)))
 (let (($x2315 (= cell_1_2 3)))
 (let (($x5122 (= cell_1_2 2)))
 (let (($x1169 (= cell_1_2 1)))
 (or $x1169 $x5122 $x2315 $x7628 $x8534 $x9668 $x901 $x8098 $x4898)))))))))))
(assert
 (let (($x1548 (= cell_2_2 9)))
 (let (($x9211 (= cell_2_2 8)))
 (let (($x715 (= cell_2_2 7)))
 (let (($x9360 (= cell_2_2 6)))
 (let (($x2973 (= cell_2_2 5)))
 (let (($x8208 (= cell_2_2 4)))
 (let (($x8856 (= cell_2_2 3)))
 (let (($x9078 (= cell_2_2 2)))
 (let (($x4688 (= cell_2_2 1)))
 (or $x4688 $x9078 $x8856 $x8208 $x2973 $x9360 $x715 $x9211 $x1548)))))))))))
(assert
 (let (($x7161 (= cell_3_2 9)))
 (let (($x9493 (= cell_3_2 8)))
 (let (($x5852 (= cell_3_2 7)))
 (let (($x6608 (= cell_3_2 6)))
 (let (($x6004 (= cell_3_2 5)))
 (let (($x4299 (= cell_3_2 4)))
 (let (($x3627 (= cell_3_2 3)))
 (let (($x5380 (= cell_3_2 2)))
 (let (($x6472 (= cell_3_2 1)))
 (or $x6472 $x5380 $x3627 $x4299 $x6004 $x6608 $x5852 $x9493 $x7161)))))))))))
(assert
 (let (($x7629 (= cell_4_2 9)))
 (let (($x3101 (= cell_4_2 8)))
 (let (($x1531 (= cell_4_2 7)))
 (let (($x702 (= cell_4_2 6)))
 (let (($x5369 (= cell_4_2 5)))
 (let (($x5370 (= cell_4_2 4)))
 (let (($x1212 (= cell_4_2 3)))
 (let (($x982 (= cell_4_2 2)))
 (let (($x879 (= cell_4_2 1)))
 (or $x879 $x982 $x1212 $x5370 $x5369 $x702 $x1531 $x3101 $x7629)))))))))))
(assert
 (let (($x4169 (= cell_5_2 9)))
 (let (($x8455 (= cell_5_2 8)))
 (let (($x1227 (= cell_5_2 7)))
 (let (($x607 (= cell_5_2 6)))
 (let (($x1099 (= cell_5_2 5)))
 (let (($x9840 (= cell_5_2 4)))
 (let (($x6749 (= cell_5_2 3)))
 (let (($x6905 (= cell_5_2 2)))
 (let (($x1058 (= cell_5_2 1)))
 (or $x1058 $x6905 $x6749 $x9840 $x1099 $x607 $x1227 $x8455 $x4169)))))))))))
(assert
 (let (($x9041 (= cell_6_2 9)))
 (let (($x895 (= cell_6_2 8)))
 (let (($x4773 (= cell_6_2 7)))
 (let (($x7927 (= cell_6_2 6)))
 (let (($x865 (= cell_6_2 5)))
 (let (($x6968 (= cell_6_2 4)))
 (let (($x2504 (= cell_6_2 3)))
 (let (($x4556 (= cell_6_2 2)))
 (let (($x4683 (= cell_6_2 1)))
 (or $x4683 $x4556 $x2504 $x6968 $x865 $x7927 $x4773 $x895 $x9041)))))))))))
(assert
 (let (($x6814 (= cell_7_2 9)))
 (let (($x9342 (= cell_7_2 8)))
 (let (($x2582 (= cell_7_2 7)))
 (let (($x1909 (= cell_7_2 6)))
 (let (($x6584 (= cell_7_2 5)))
 (let (($x6794 (= cell_7_2 4)))
 (let (($x3439 (= cell_7_2 3)))
 (let (($x10000 (= cell_7_2 2)))
 (let (($x3150 (= cell_7_2 1)))
 (or $x3150 $x10000 $x3439 $x6794 $x6584 $x1909 $x2582 $x9342 $x6814)))))))))))
(assert
 (let (($x3919 (= cell_8_2 9)))
 (let (($x6635 (= cell_8_2 8)))
 (let (($x7240 (= cell_8_2 7)))
 (let (($x8596 (= cell_8_2 6)))
 (let (($x9999 (= cell_8_2 5)))
 (let (($x1342 (= cell_8_2 4)))
 (let (($x7833 (= cell_8_2 3)))
 (let (($x3880 (= cell_8_2 2)))
 (let (($x9731 (= cell_8_2 1)))
 (or $x9731 $x3880 $x7833 $x1342 $x9999 $x8596 $x7240 $x6635 $x3919)))))))))))
(assert
 (let (($x613 (= cell_9_2 9)))
 (let (($x7050 (= cell_9_2 8)))
 (let (($x1328 (= cell_9_2 7)))
 (let (($x2925 (= cell_9_2 6)))
 (let (($x9348 (= cell_9_2 5)))
 (let (($x5746 (= cell_9_2 4)))
 (let (($x5957 (= cell_9_2 3)))
 (let (($x3675 (= cell_9_2 2)))
 (let (($x1620 (= cell_9_2 1)))
 (or $x1620 $x3675 $x5957 $x5746 $x9348 $x2925 $x1328 $x7050 $x613)))))))))))
(assert
 (let (($x1951 (= cell_1_3 9)))
 (let (($x3736 (= cell_1_3 8)))
 (let (($x2990 (= cell_1_3 7)))
 (let (($x3392 (= cell_1_3 6)))
 (let (($x7436 (= cell_1_3 5)))
 (let (($x10146 (= cell_1_3 4)))
 (let (($x7170 (= cell_1_3 3)))
 (let (($x7630 (= cell_1_3 2)))
 (let (($x7702 (= cell_1_3 1)))
 (or $x7702 $x7630 $x7170 $x10146 $x7436 $x3392 $x2990 $x3736 $x1951)))))))))))
(assert
 (let (($x1397 (= cell_2_3 9)))
 (let (($x8010 (= cell_2_3 8)))
 (let (($x9716 (= cell_2_3 7)))
 (let (($x944 (= cell_2_3 6)))
 (let (($x2266 (= cell_2_3 5)))
 (let (($x2542 (= cell_2_3 4)))
 (let (($x714 (= cell_2_3 3)))
 (let (($x10034 (= cell_2_3 2)))
 (let (($x3556 (= cell_2_3 1)))
 (or $x3556 $x10034 $x714 $x2542 $x2266 $x944 $x9716 $x8010 $x1397)))))))))))
(assert
 (let (($x5454 (= cell_3_3 9)))
 (let (($x2378 (= cell_3_3 8)))
 (let (($x8862 (= cell_3_3 7)))
 (let (($x8545 (= cell_3_3 6)))
 (let (($x7829 (= cell_3_3 5)))
 (let (($x3450 (= cell_3_3 4)))
 (let (($x4927 (= cell_3_3 3)))
 (let (($x5064 (= cell_3_3 2)))
 (let (($x8132 (= cell_3_3 1)))
 (or $x8132 $x5064 $x4927 $x3450 $x7829 $x8545 $x8862 $x2378 $x5454)))))))))))
(assert
 (let (($x7197 (= cell_4_3 9)))
 (let (($x3241 (= cell_4_3 8)))
 (let (($x1226 (= cell_4_3 7)))
 (let (($x3865 (= cell_4_3 6)))
 (let (($x6888 (= cell_4_3 5)))
 (let (($x6971 (= cell_4_3 4)))
 (let (($x54 (= cell_4_3 3)))
 (let (($x984 (= cell_4_3 2)))
 (let (($x4496 (= cell_4_3 1)))
 (or $x4496 $x984 $x54 $x6971 $x6888 $x3865 $x1226 $x3241 $x7197)))))))))))
(assert
 (let (($x4109 (= cell_5_3 9)))
 (let (($x4524 (= cell_5_3 8)))
 (let (($x8469 (= cell_5_3 7)))
 (let (($x5648 (= cell_5_3 6)))
 (let (($x5644 (= cell_5_3 5)))
 (let (($x1233 (= cell_5_3 4)))
 (let (($x2023 (= cell_5_3 3)))
 (let (($x6054 (= cell_5_3 2)))
 (let (($x1479 (= cell_5_3 1)))
 (or $x1479 $x6054 $x2023 $x1233 $x5644 $x5648 $x8469 $x4524 $x4109)))))))))))
(assert
 (let (($x3256 (= cell_6_3 9)))
 (let (($x1614 (= cell_6_3 8)))
 (let (($x3915 (= cell_6_3 7)))
 (let (($x9468 (= cell_6_3 6)))
 (let (($x4610 (= cell_6_3 5)))
 (let (($x6996 (= cell_6_3 4)))
 (let (($x8538 (= cell_6_3 3)))
 (let (($x8024 (= cell_6_3 2)))
 (let (($x765 (= cell_6_3 1)))
 (or $x765 $x8024 $x8538 $x6996 $x4610 $x9468 $x3915 $x1614 $x3256)))))))))))
(assert
 (let (($x9026 (= cell_7_3 9)))
 (let (($x2955 (= cell_7_3 8)))
 (let (($x4924 (= cell_7_3 7)))
 (let (($x3064 (= cell_7_3 6)))
 (let (($x2543 (= cell_7_3 5)))
 (let (($x2271 (= cell_7_3 4)))
 (let (($x8225 (= cell_7_3 3)))
 (let (($x1534 (= cell_7_3 2)))
 (let (($x3842 (= cell_7_3 1)))
 (or $x3842 $x1534 $x8225 $x2271 $x2543 $x3064 $x4924 $x2955 $x9026)))))))))))
(assert
 (let (($x3088 (= cell_8_3 9)))
 (let (($x2940 (= cell_8_3 8)))
 (let (($x8859 (= cell_8_3 7)))
 (let (($x1211 (= cell_8_3 6)))
 (let (($x6767 (= cell_8_3 5)))
 (let (($x5455 (= cell_8_3 4)))
 (let (($x3300 (= cell_8_3 3)))
 (let (($x7856 (= cell_8_3 2)))
 (let (($x414 (= cell_8_3 1)))
 (or $x414 $x7856 $x3300 $x5455 $x6767 $x1211 $x8859 $x2940 $x3088)))))))))))
(assert
 (let (($x8311 (= cell_9_3 9)))
 (let (($x8356 (= cell_9_3 8)))
 (let (($x4840 (= cell_9_3 7)))
 (let (($x4710 (= cell_9_3 6)))
 (let (($x2041 (= cell_9_3 5)))
 (let (($x536 (= cell_9_3 4)))
 (let (($x3783 (= cell_9_3 3)))
 (let (($x4690 (= cell_9_3 2)))
 (let (($x1859 (= cell_9_3 1)))
 (or $x1859 $x4690 $x3783 $x536 $x2041 $x4710 $x4840 $x8356 $x8311)))))))))))
(assert
 (let (($x5150 (= cell_1_4 9)))
 (let (($x5098 (= cell_1_4 8)))
 (let (($x1055 (= cell_1_4 7)))
 (let (($x9200 (= cell_1_4 6)))
 (let (($x10071 (= cell_1_4 5)))
 (let (($x3979 (= cell_1_4 4)))
 (let (($x9793 (= cell_1_4 3)))
 (let (($x2070 (= cell_1_4 2)))
 (let (($x764 (= cell_1_4 1)))
 (or $x764 $x2070 $x9793 $x3979 $x10071 $x9200 $x1055 $x5098 $x5150)))))))))))
(assert
 (let (($x1629 (= cell_2_4 9)))
 (let (($x10094 (= cell_2_4 8)))
 (let (($x9037 (= cell_2_4 7)))
 (let (($x884 (= cell_2_4 6)))
 (let (($x5991 (= cell_2_4 5)))
 (let (($x4021 (= cell_2_4 4)))
 (let (($x5403 (= cell_2_4 3)))
 (let (($x6735 (= cell_2_4 2)))
 (let (($x5690 (= cell_2_4 1)))
 (or $x5690 $x6735 $x5403 $x4021 $x5991 $x884 $x9037 $x10094 $x1629)))))))))))
(assert
 (let (($x2147 (= cell_3_4 9)))
 (let (($x6940 (= cell_3_4 8)))
 (let (($x1885 (= cell_3_4 7)))
 (let (($x2144 (= cell_3_4 6)))
 (let (($x697 (= cell_3_4 5)))
 (let (($x5056 (= cell_3_4 4)))
 (let (($x5108 (= cell_3_4 3)))
 (let (($x4435 (= cell_3_4 2)))
 (let (($x3291 (= cell_3_4 1)))
 (or $x3291 $x4435 $x5108 $x5056 $x697 $x2144 $x1885 $x6940 $x2147)))))))))))
(assert
 (let (($x7736 (= cell_4_4 9)))
 (let (($x8005 (= cell_4_4 8)))
 (let (($x779 (= cell_4_4 7)))
 (let (($x5373 (= cell_4_4 6)))
 (let (($x3156 (= cell_4_4 5)))
 (let (($x8799 (= cell_4_4 4)))
 (let (($x2000 (= cell_4_4 3)))
 (let (($x7277 (= cell_4_4 2)))
 (let (($x2038 (= cell_4_4 1)))
 (or $x2038 $x7277 $x2000 $x8799 $x3156 $x5373 $x779 $x8005 $x7736)))))))))))
(assert
 (let (($x10089 (= cell_5_4 9)))
 (let (($x5282 (= cell_5_4 8)))
 (let (($x1742 (= cell_5_4 7)))
 (let (($x1380 (= cell_5_4 6)))
 (let (($x8372 (= cell_5_4 5)))
 (let (($x8017 (= cell_5_4 4)))
 (let (($x4079 (= cell_5_4 3)))
 (let (($x7747 (= cell_5_4 2)))
 (let (($x7167 (= cell_5_4 1)))
 (or $x7167 $x7747 $x4079 $x8017 $x8372 $x1380 $x1742 $x5282 $x10089)))))))))))
(assert
 (let (($x9489 (= cell_6_4 9)))
 (let (($x9596 (= cell_6_4 8)))
 (let (($x51 (= cell_6_4 7)))
 (let (($x7264 (= cell_6_4 6)))
 (let (($x421 (= cell_6_4 5)))
 (let (($x8882 (= cell_6_4 4)))
 (let (($x9875 (= cell_6_4 3)))
 (let (($x8592 (= cell_6_4 2)))
 (let (($x7848 (= cell_6_4 1)))
 (or $x7848 $x8592 $x9875 $x8882 $x421 $x7264 $x51 $x9596 $x9489)))))))))))
(assert
 (let (($x5485 (= cell_7_4 9)))
 (let (($x9074 (= cell_7_4 8)))
 (let (($x9165 (= cell_7_4 7)))
 (let (($x2905 (= cell_7_4 6)))
 (let (($x7045 (= cell_7_4 5)))
 (let (($x8771 (= cell_7_4 4)))
 (let (($x3633 (= cell_7_4 3)))
 (let (($x9983 (= cell_7_4 2)))
 (let (($x4994 (= cell_7_4 1)))
 (or $x4994 $x9983 $x3633 $x8771 $x7045 $x2905 $x9165 $x9074 $x5485)))))))))))
(assert
 (let (($x9317 (= cell_8_4 9)))
 (let (($x1259 (= cell_8_4 8)))
 (let (($x4439 (= cell_8_4 7)))
 (let (($x5577 (= cell_8_4 6)))
 (let (($x1444 (= cell_8_4 5)))
 (let (($x8556 (= cell_8_4 4)))
 (let (($x7472 (= cell_8_4 3)))
 (let (($x415 (= cell_8_4 2)))
 (let (($x9105 (= cell_8_4 1)))
 (or $x9105 $x415 $x7472 $x8556 $x1444 $x5577 $x4439 $x1259 $x9317)))))))))))
(assert
 (let (($x6944 (= cell_9_4 9)))
 (let (($x8842 (= cell_9_4 8)))
 (let (($x3216 (= cell_9_4 7)))
 (let (($x5764 (= cell_9_4 6)))
 (let (($x2527 (= cell_9_4 5)))
 (let (($x8969 (= cell_9_4 4)))
 (let (($x1383 (= cell_9_4 3)))
 (let (($x3798 (= cell_9_4 2)))
 (let (($x3277 (= cell_9_4 1)))
 (or $x3277 $x3798 $x1383 $x8969 $x2527 $x5764 $x3216 $x8842 $x6944)))))))))))
(assert
 (let (($x2373 (= cell_1_5 9)))
 (let (($x8986 (= cell_1_5 8)))
 (let (($x5626 (= cell_1_5 7)))
 (let (($x5010 (= cell_1_5 6)))
 (let (($x2943 (= cell_1_5 5)))
 (let (($x3722 (= cell_1_5 4)))
 (let (($x1316 (= cell_1_5 3)))
 (let (($x4444 (= cell_1_5 2)))
 (let (($x3821 (= cell_1_5 1)))
 (or $x3821 $x4444 $x1316 $x3722 $x2943 $x5010 $x5626 $x8986 $x2373)))))))))))
(assert
 (let (($x499 (= cell_2_5 9)))
 (let (($x3246 (= cell_2_5 8)))
 (let (($x874 (= cell_2_5 7)))
 (let (($x6867 (= cell_2_5 6)))
 (let (($x4184 (= cell_2_5 5)))
 (let (($x6084 (= cell_2_5 4)))
 (let (($x7939 (= cell_2_5 3)))
 (let (($x1245 (= cell_2_5 2)))
 (let (($x1193 (= cell_2_5 1)))
 (or $x1193 $x1245 $x7939 $x6084 $x4184 $x6867 $x874 $x3246 $x499)))))))))))
(assert
 (let (($x6850 (= cell_3_5 9)))
 (let (($x9789 (= cell_3_5 8)))
 (let (($x1309 (= cell_3_5 7)))
 (let (($x6540 (= cell_3_5 6)))
 (let (($x8247 (= cell_3_5 5)))
 (let (($x4848 (= cell_3_5 4)))
 (let (($x3364 (= cell_3_5 3)))
 (let (($x2638 (= cell_3_5 2)))
 (let (($x6317 (= cell_3_5 1)))
 (or $x6317 $x2638 $x3364 $x4848 $x8247 $x6540 $x1309 $x9789 $x6850)))))))))))
(assert
 (let (($x6089 (= cell_4_5 9)))
 (let (($x16 (= cell_4_5 8)))
 (let (($x7275 (= cell_4_5 7)))
 (let (($x313 (= cell_4_5 6)))
 (let (($x7205 (= cell_4_5 5)))
 (let (($x8711 (= cell_4_5 4)))
 (let (($x9770 (= cell_4_5 3)))
 (let (($x6880 (= cell_4_5 2)))
 (let (($x10217 (= cell_4_5 1)))
 (or $x10217 $x6880 $x9770 $x8711 $x7205 $x313 $x7275 $x16 $x6089)))))))))))
(assert
 (let (($x2682 (= cell_5_5 9)))
 (let (($x3777 (= cell_5_5 8)))
 (let (($x4438 (= cell_5_5 7)))
 (let (($x2381 (= cell_5_5 6)))
 (let (($x4340 (= cell_5_5 5)))
 (let (($x7789 (= cell_5_5 4)))
 (let (($x5787 (= cell_5_5 3)))
 (let (($x8366 (= cell_5_5 2)))
 (let (($x6188 (= cell_5_5 1)))
 (or $x6188 $x8366 $x5787 $x7789 $x4340 $x2381 $x4438 $x3777 $x2682)))))))))))
(assert
 (let (($x6581 (= cell_6_5 9)))
 (let (($x3320 (= cell_6_5 8)))
 (let (($x9705 (= cell_6_5 7)))
 (let (($x7981 (= cell_6_5 6)))
 (let (($x4063 (= cell_6_5 5)))
 (let (($x9545 (= cell_6_5 4)))
 (let (($x7524 (= cell_6_5 3)))
 (let (($x4869 (= cell_6_5 2)))
 (let (($x8659 (= cell_6_5 1)))
 (or $x8659 $x4869 $x7524 $x9545 $x4063 $x7981 $x9705 $x3320 $x6581)))))))))))
(assert
 (let (($x6265 (= cell_7_5 9)))
 (let (($x9930 (= cell_7_5 8)))
 (let (($x4817 (= cell_7_5 7)))
 (let (($x7575 (= cell_7_5 6)))
 (let (($x3742 (= cell_7_5 5)))
 (let (($x1596 (= cell_7_5 4)))
 (let (($x1550 (= cell_7_5 3)))
 (let (($x488 (= cell_7_5 2)))
 (let (($x6059 (= cell_7_5 1)))
 (or $x6059 $x488 $x1550 $x1596 $x3742 $x7575 $x4817 $x9930 $x6265)))))))))))
(assert
 (let (($x1062 (= cell_8_5 9)))
 (let (($x10177 (= cell_8_5 8)))
 (let (($x3502 (= cell_8_5 7)))
 (let (($x7805 (= cell_8_5 6)))
 (let (($x9924 (= cell_8_5 5)))
 (let (($x2869 (= cell_8_5 4)))
 (let (($x1660 (= cell_8_5 3)))
 (let (($x7917 (= cell_8_5 2)))
 (let (($x1155 (= cell_8_5 1)))
 (or $x1155 $x7917 $x1660 $x2869 $x9924 $x7805 $x3502 $x10177 $x1062)))))))))))
(assert
 (let (($x8141 (= cell_9_5 9)))
 (let (($x5050 (= cell_9_5 8)))
 (let (($x9803 (= cell_9_5 7)))
 (let (($x4097 (= cell_9_5 6)))
 (let (($x7290 (= cell_9_5 5)))
 (let (($x3207 (= cell_9_5 4)))
 (let (($x8034 (= cell_9_5 3)))
 (let (($x9477 (= cell_9_5 2)))
 (let (($x2825 (= cell_9_5 1)))
 (or $x2825 $x9477 $x8034 $x3207 $x7290 $x4097 $x9803 $x5050 $x8141)))))))))))
(assert
 (let (($x177 (= cell_1_6 9)))
 (let (($x2191 (= cell_1_6 8)))
 (let (($x3802 (= cell_1_6 7)))
 (let (($x4658 (= cell_1_6 6)))
 (let (($x9312 (= cell_1_6 5)))
 (let (($x996 (= cell_1_6 4)))
 (let (($x3513 (= cell_1_6 3)))
 (let (($x1110 (= cell_1_6 2)))
 (let (($x10185 (= cell_1_6 1)))
 (or $x10185 $x1110 $x3513 $x996 $x9312 $x4658 $x3802 $x2191 $x177)))))))))))
(assert
 (let (($x7160 (= cell_2_6 9)))
 (let (($x6240 (= cell_2_6 8)))
 (let (($x4656 (= cell_2_6 7)))
 (let (($x9811 (= cell_2_6 6)))
 (let (($x4607 (= cell_2_6 5)))
 (let (($x5584 (= cell_2_6 4)))
 (let (($x7012 (= cell_2_6 3)))
 (let (($x9517 (= cell_2_6 2)))
 (let (($x10220 (= cell_2_6 1)))
 (or $x10220 $x9517 $x7012 $x5584 $x4607 $x9811 $x4656 $x6240 $x7160)))))))))))
(assert
 (let (($x7428 (= cell_3_6 9)))
 (let (($x6452 (= cell_3_6 8)))
 (let (($x792 (= cell_3_6 7)))
 (let (($x9901 (= cell_3_6 6)))
 (let (($x5651 (= cell_3_6 5)))
 (let (($x2433 (= cell_3_6 4)))
 (let (($x6087 (= cell_3_6 3)))
 (let (($x7643 (= cell_3_6 2)))
 (let (($x4492 (= cell_3_6 1)))
 (or $x4492 $x7643 $x6087 $x2433 $x5651 $x9901 $x792 $x6452 $x7428)))))))))))
(assert
 (let (($x7200 (= cell_4_6 9)))
 (let (($x8414 (= cell_4_6 8)))
 (let (($x4310 (= cell_4_6 7)))
 (let (($x10166 (= cell_4_6 6)))
 (let (($x6423 (= cell_4_6 5)))
 (let (($x6440 (= cell_4_6 4)))
 (let (($x3532 (= cell_4_6 3)))
 (let (($x9316 (= cell_4_6 2)))
 (let (($x1363 (= cell_4_6 1)))
 (or $x1363 $x9316 $x3532 $x6440 $x6423 $x10166 $x4310 $x8414 $x7200)))))))))))
(assert
 (let (($x5153 (= cell_5_6 9)))
 (let (($x1974 (= cell_5_6 8)))
 (let (($x2921 (= cell_5_6 7)))
 (let (($x8198 (= cell_5_6 6)))
 (let (($x1943 (= cell_5_6 5)))
 (let (($x8111 (= cell_5_6 4)))
 (let (($x10147 (= cell_5_6 3)))
 (let (($x3991 (= cell_5_6 2)))
 (let (($x5337 (= cell_5_6 1)))
 (or $x5337 $x3991 $x10147 $x8111 $x1943 $x8198 $x2921 $x1974 $x5153)))))))))))
(assert
 (let (($x3027 (= cell_6_6 9)))
 (let (($x7983 (= cell_6_6 8)))
 (let (($x6417 (= cell_6_6 7)))
 (let (($x2231 (= cell_6_6 6)))
 (let (($x4781 (= cell_6_6 5)))
 (let (($x5508 (= cell_6_6 4)))
 (let (($x5214 (= cell_6_6 3)))
 (let (($x5154 (= cell_6_6 2)))
 (let (($x1043 (= cell_6_6 1)))
 (or $x1043 $x5154 $x5214 $x5508 $x4781 $x2231 $x6417 $x7983 $x3027)))))))))))
(assert
 (let (($x3153 (= cell_7_6 9)))
 (let (($x8223 (= cell_7_6 8)))
 (let (($x4761 (= cell_7_6 7)))
 (let (($x9238 (= cell_7_6 6)))
 (let (($x9591 (= cell_7_6 5)))
 (let (($x9837 (= cell_7_6 4)))
 (let (($x8597 (= cell_7_6 3)))
 (let (($x3050 (= cell_7_6 2)))
 (let (($x6762 (= cell_7_6 1)))
 (or $x6762 $x3050 $x8597 $x9837 $x9591 $x9238 $x4761 $x8223 $x3153)))))))))))
(assert
 (let (($x6297 (= cell_8_6 9)))
 (let (($x5142 (= cell_8_6 8)))
 (let (($x3458 (= cell_8_6 7)))
 (let (($x6145 (= cell_8_6 6)))
 (let (($x8018 (= cell_8_6 5)))
 (let (($x4183 (= cell_8_6 4)))
 (let (($x8678 (= cell_8_6 3)))
 (let (($x2995 (= cell_8_6 2)))
 (let (($x6551 (= cell_8_6 1)))
 (or $x6551 $x2995 $x8678 $x4183 $x8018 $x6145 $x3458 $x5142 $x6297)))))))))))
(assert
 (let (($x8194 (= cell_9_6 9)))
 (let (($x9994 (= cell_9_6 8)))
 (let (($x8154 (= cell_9_6 7)))
 (let (($x4767 (= cell_9_6 6)))
 (let (($x9221 (= cell_9_6 5)))
 (let (($x8341 (= cell_9_6 4)))
 (let (($x8205 (= cell_9_6 3)))
 (let (($x7807 (= cell_9_6 2)))
 (let (($x2344 (= cell_9_6 1)))
 (or $x2344 $x7807 $x8205 $x8341 $x9221 $x4767 $x8154 $x9994 $x8194)))))))))))
(assert
 (let (($x471 (= cell_1_7 9)))
 (let (($x410 (= cell_1_7 8)))
 (let (($x3587 (= cell_1_7 7)))
 (let (($x6363 (= cell_1_7 6)))
 (let (($x8663 (= cell_1_7 5)))
 (let (($x6714 (= cell_1_7 4)))
 (let (($x2978 (= cell_1_7 3)))
 (let (($x6029 (= cell_1_7 2)))
 (let (($x1537 (= cell_1_7 1)))
 (or $x1537 $x6029 $x2978 $x6714 $x8663 $x6363 $x3587 $x410 $x471)))))))))))
(assert
 (let (($x9445 (= cell_2_7 9)))
 (let (($x7787 (= cell_2_7 8)))
 (let (($x4088 (= cell_2_7 7)))
 (let (($x261 (= cell_2_7 6)))
 (let (($x5223 (= cell_2_7 5)))
 (let (($x8609 (= cell_2_7 4)))
 (let (($x8765 (= cell_2_7 3)))
 (let (($x8583 (= cell_2_7 2)))
 (let (($x4952 (= cell_2_7 1)))
 (or $x4952 $x8583 $x8765 $x8609 $x5223 $x261 $x4088 $x7787 $x9445)))))))))))
(assert
 (let (($x940 (= cell_3_7 9)))
 (let (($x4758 (= cell_3_7 8)))
 (let (($x6430 (= cell_3_7 7)))
 (let (($x1093 (= cell_3_7 6)))
 (let (($x6433 (= cell_3_7 5)))
 (let (($x6347 (= cell_3_7 4)))
 (let (($x3765 (= cell_3_7 3)))
 (let (($x5707 (= cell_3_7 2)))
 (let (($x6073 (= cell_3_7 1)))
 (or $x6073 $x5707 $x3765 $x6347 $x6433 $x1093 $x6430 $x4758 $x940)))))))))))
(assert
 (let (($x9029 (= cell_4_7 9)))
 (let (($x853 (= cell_4_7 8)))
 (let (($x8814 (= cell_4_7 7)))
 (let (($x5417 (= cell_4_7 6)))
 (let (($x3037 (= cell_4_7 5)))
 (let (($x4533 (= cell_4_7 4)))
 (let (($x3455 (= cell_4_7 3)))
 (let (($x3193 (= cell_4_7 2)))
 (let (($x6935 (= cell_4_7 1)))
 (or $x6935 $x3193 $x3455 $x4533 $x3037 $x5417 $x8814 $x853 $x9029)))))))))))
(assert
 (let (($x4697 (= cell_5_7 9)))
 (let (($x2574 (= cell_5_7 8)))
 (let (($x6524 (= cell_5_7 7)))
 (let (($x1089 (= cell_5_7 6)))
 (let (($x2929 (= cell_5_7 5)))
 (let (($x3548 (= cell_5_7 4)))
 (let (($x4788 (= cell_5_7 3)))
 (let (($x2232 (= cell_5_7 2)))
 (let (($x5436 (= cell_5_7 1)))
 (or $x5436 $x2232 $x4788 $x3548 $x2929 $x1089 $x6524 $x2574 $x4697)))))))))))
(assert
 (let (($x2769 (= cell_6_7 9)))
 (let (($x5391 (= cell_6_7 8)))
 (let (($x1294 (= cell_6_7 7)))
 (let (($x8454 (= cell_6_7 6)))
 (let (($x4306 (= cell_6_7 5)))
 (let (($x5227 (= cell_6_7 4)))
 (let (($x6177 (= cell_6_7 3)))
 (let (($x7566 (= cell_6_7 2)))
 (let (($x1845 (= cell_6_7 1)))
 (or $x1845 $x7566 $x6177 $x5227 $x4306 $x8454 $x1294 $x5391 $x2769)))))))))))
(assert
 (let (($x9314 (= cell_7_7 9)))
 (let (($x6193 (= cell_7_7 8)))
 (let (($x3805 (= cell_7_7 7)))
 (let (($x6368 (= cell_7_7 6)))
 (let (($x8928 (= cell_7_7 5)))
 (let (($x2953 (= cell_7_7 4)))
 (let (($x3558 (= cell_7_7 3)))
 (let (($x8649 (= cell_7_7 2)))
 (let (($x7147 (= cell_7_7 1)))
 (or $x7147 $x8649 $x3558 $x2953 $x8928 $x6368 $x3805 $x6193 $x9314)))))))))))
(assert
 (let (($x2299 (= cell_8_7 9)))
 (let (($x8280 (= cell_8_7 8)))
 (let (($x5618 (= cell_8_7 7)))
 (let (($x5421 (= cell_8_7 6)))
 (let (($x9486 (= cell_8_7 5)))
 (let (($x4787 (= cell_8_7 4)))
 (let (($x531 (= cell_8_7 3)))
 (let (($x6012 (= cell_8_7 2)))
 (let (($x9748 (= cell_8_7 1)))
 (or $x9748 $x6012 $x531 $x4787 $x9486 $x5421 $x5618 $x8280 $x2299)))))))))))
(assert
 (let (($x5874 (= cell_9_7 9)))
 (let (($x1454 (= cell_9_7 8)))
 (let (($x7054 (= cell_9_7 7)))
 (let (($x9368 (= cell_9_7 6)))
 (let (($x808 (= cell_9_7 5)))
 (let (($x2049 (= cell_9_7 4)))
 (let (($x4957 (= cell_9_7 3)))
 (let (($x5019 (= cell_9_7 2)))
 (let (($x3083 (= cell_9_7 1)))
 (or $x3083 $x5019 $x4957 $x2049 $x808 $x9368 $x7054 $x1454 $x5874)))))))))))
(assert
 (let (($x791 (= cell_1_8 9)))
 (let (($x6878 (= cell_1_8 8)))
 (let (($x1205 (= cell_1_8 7)))
 (let (($x4559 (= cell_1_8 6)))
 (let (($x4903 (= cell_1_8 5)))
 (let (($x2158 (= cell_1_8 4)))
 (let (($x9337 (= cell_1_8 3)))
 (let (($x7261 (= cell_1_8 2)))
 (let (($x2099 (= cell_1_8 1)))
 (or $x2099 $x7261 $x9337 $x2158 $x4903 $x4559 $x1205 $x6878 $x791)))))))))))
(assert
 (let (($x179 (= cell_2_8 9)))
 (let (($x6590 (= cell_2_8 8)))
 (let (($x4856 (= cell_2_8 7)))
 (let (($x5795 (= cell_2_8 6)))
 (let (($x2863 (= cell_2_8 5)))
 (let (($x3557 (= cell_2_8 4)))
 (let (($x5278 (= cell_2_8 3)))
 (let (($x6299 (= cell_2_8 2)))
 (let (($x322 (= cell_2_8 1)))
 (or $x322 $x6299 $x5278 $x3557 $x2863 $x5795 $x4856 $x6590 $x179)))))))))))
(assert
 (let (($x6898 (= cell_3_8 9)))
 (let (($x2902 (= cell_3_8 8)))
 (let (($x1639 (= cell_3_8 7)))
 (let (($x7870 (= cell_3_8 6)))
 (let (($x617 (= cell_3_8 5)))
 (let (($x9813 (= cell_3_8 4)))
 (let (($x8178 (= cell_3_8 3)))
 (let (($x2794 (= cell_3_8 2)))
 (let (($x7235 (= cell_3_8 1)))
 (or $x7235 $x2794 $x8178 $x9813 $x617 $x7870 $x1639 $x2902 $x6898)))))))))))
(assert
 (let (($x4945 (= cell_4_8 9)))
 (let (($x6580 (= cell_4_8 8)))
 (let (($x7737 (= cell_4_8 7)))
 (let (($x6537 (= cell_4_8 6)))
 (let (($x2657 (= cell_4_8 5)))
 (let (($x7121 (= cell_4_8 4)))
 (let (($x8944 (= cell_4_8 3)))
 (let (($x9111 (= cell_4_8 2)))
 (let (($x2673 (= cell_4_8 1)))
 (or $x2673 $x9111 $x8944 $x7121 $x2657 $x6537 $x7737 $x6580 $x4945)))))))))))
(assert
 (let (($x7705 (= cell_5_8 9)))
 (let (($x6804 (= cell_5_8 8)))
 (let (($x1836 (= cell_5_8 7)))
 (let (($x1587 (= cell_5_8 6)))
 (let (($x9154 (= cell_5_8 5)))
 (let (($x9682 (= cell_5_8 4)))
 (let (($x7885 (= cell_5_8 3)))
 (let (($x7243 (= cell_5_8 2)))
 (let (($x7767 (= cell_5_8 1)))
 (or $x7767 $x7243 $x7885 $x9682 $x9154 $x1587 $x1836 $x6804 $x7705)))))))))))
(assert
 (let (($x6001 (= cell_6_8 9)))
 (let (($x7226 (= cell_6_8 8)))
 (let (($x2055 (= cell_6_8 7)))
 (let (($x6727 (= cell_6_8 6)))
 (let (($x3996 (= cell_6_8 5)))
 (let (($x3828 (= cell_6_8 4)))
 (let (($x4825 (= cell_6_8 3)))
 (let (($x5611 (= cell_6_8 2)))
 (let (($x5716 (= cell_6_8 1)))
 (or $x5716 $x5611 $x4825 $x3828 $x3996 $x6727 $x2055 $x7226 $x6001)))))))))))
(assert
 (let (($x9359 (= cell_7_8 9)))
 (let (($x3701 (= cell_7_8 8)))
 (let (($x5953 (= cell_7_8 7)))
 (let (($x10002 (= cell_7_8 6)))
 (let (($x3938 (= cell_7_8 5)))
 (let (($x85 (= cell_7_8 4)))
 (let (($x1600 (= cell_7_8 3)))
 (let (($x6226 (= cell_7_8 2)))
 (let (($x3183 (= cell_7_8 1)))
 (or $x3183 $x6226 $x1600 $x85 $x3938 $x10002 $x5953 $x3701 $x9359)))))))))))
(assert
 (let (($x5271 (= cell_8_8 9)))
 (let (($x7817 (= cell_8_8 8)))
 (let (($x5181 (= cell_8_8 7)))
 (let (($x2583 (= cell_8_8 6)))
 (let (($x9050 (= cell_8_8 5)))
 (let (($x1045 (= cell_8_8 4)))
 (let (($x5704 (= cell_8_8 3)))
 (let (($x346 (= cell_8_8 2)))
 (let (($x3002 (= cell_8_8 1)))
 (or $x3002 $x346 $x5704 $x1045 $x9050 $x2583 $x5181 $x7817 $x5271)))))))))))
(assert
 (let (($x1059 (= cell_9_8 9)))
 (let (($x7140 (= cell_9_8 8)))
 (let (($x7251 (= cell_9_8 7)))
 (let (($x9301 (= cell_9_8 6)))
 (let (($x8726 (= cell_9_8 5)))
 (let (($x2552 (= cell_9_8 4)))
 (let (($x1780 (= cell_9_8 3)))
 (let (($x4092 (= cell_9_8 2)))
 (let (($x3543 (= cell_9_8 1)))
 (or $x3543 $x4092 $x1780 $x2552 $x8726 $x9301 $x7251 $x7140 $x1059)))))))))))
(assert
 (let (($x3280 (= cell_1_9 9)))
 (let (($x1906 (= cell_1_9 8)))
 (let (($x3220 (= cell_1_9 7)))
 (let (($x5574 (= cell_1_9 6)))
 (let (($x8827 (= cell_1_9 5)))
 (let (($x1623 (= cell_1_9 4)))
 (let (($x3759 (= cell_1_9 3)))
 (let (($x8020 (= cell_1_9 2)))
 (let (($x7206 (= cell_1_9 1)))
 (or $x7206 $x8020 $x3759 $x1623 $x8827 $x5574 $x3220 $x1906 $x3280)))))))))))
(assert
 (let (($x3665 (= cell_2_9 9)))
 (let (($x9367 (= cell_2_9 8)))
 (let (($x5531 (= cell_2_9 7)))
 (let (($x6913 (= cell_2_9 6)))
 (let (($x7890 (= cell_2_9 5)))
 (let (($x3070 (= cell_2_9 4)))
 (let (($x5314 (= cell_2_9 3)))
 (let (($x4468 (= cell_2_9 2)))
 (let (($x7398 (= cell_2_9 1)))
 (or $x7398 $x4468 $x5314 $x3070 $x7890 $x6913 $x5531 $x9367 $x3665)))))))))))
(assert
 (let (($x9219 (= cell_3_9 9)))
 (let (($x6533 (= cell_3_9 8)))
 (let (($x4150 (= cell_3_9 7)))
 (let (($x2914 (= cell_3_9 6)))
 (let (($x9171 (= cell_3_9 5)))
 (let (($x8628 (= cell_3_9 4)))
 (let (($x6462 (= cell_3_9 3)))
 (let (($x4846 (= cell_3_9 2)))
 (let (($x8695 (= cell_3_9 1)))
 (or $x8695 $x4846 $x6462 $x8628 $x9171 $x2914 $x4150 $x6533 $x9219)))))))))))
(assert
 (let (($x6909 (= cell_4_9 9)))
 (let (($x2776 (= cell_4_9 8)))
 (let (($x5288 (= cell_4_9 7)))
 (let (($x1359 (= cell_4_9 6)))
 (let (($x1097 (= cell_4_9 5)))
 (let (($x4291 (= cell_4_9 4)))
 (let (($x3413 (= cell_4_9 3)))
 (let (($x8720 (= cell_4_9 2)))
 (let (($x4977 (= cell_4_9 1)))
 (or $x4977 $x8720 $x3413 $x4291 $x1097 $x1359 $x5288 $x2776 $x6909)))))))))))
(assert
 (let (($x5317 (= cell_5_9 9)))
 (let (($x3486 (= cell_5_9 8)))
 (let (($x1158 (= cell_5_9 7)))
 (let (($x2997 (= cell_5_9 6)))
 (let (($x2437 (= cell_5_9 5)))
 (let (($x6287 (= cell_5_9 4)))
 (let (($x9220 (= cell_5_9 3)))
 (let (($x416 (= cell_5_9 2)))
 (let (($x5182 (= cell_5_9 1)))
 (or $x5182 $x416 $x9220 $x6287 $x2437 $x2997 $x1158 $x3486 $x5317)))))))))))
(assert
 (let (($x4819 (= cell_6_9 9)))
 (let (($x7759 (= cell_6_9 8)))
 (let (($x4351 (= cell_6_9 7)))
 (let (($x118 (= cell_6_9 6)))
 (let (($x828 (= cell_6_9 5)))
 (let (($x6750 (= cell_6_9 4)))
 (let (($x6930 (= cell_6_9 3)))
 (let (($x5137 (= cell_6_9 2)))
 (let (($x9541 (= cell_6_9 1)))
 (or $x9541 $x5137 $x6930 $x6750 $x828 $x118 $x4351 $x7759 $x4819)))))))))))
(assert
 (let (($x6957 (= cell_7_9 9)))
 (let (($x9522 (= cell_7_9 8)))
 (let (($x8638 (= cell_7_9 7)))
 (let (($x4108 (= cell_7_9 6)))
 (let (($x9089 (= cell_7_9 5)))
 (let (($x5839 (= cell_7_9 4)))
 (let (($x2424 (= cell_7_9 3)))
 (let (($x2759 (= cell_7_9 2)))
 (let (($x9373 (= cell_7_9 1)))
 (or $x9373 $x2759 $x2424 $x5839 $x9089 $x4108 $x8638 $x9522 $x6957)))))))))))
(assert
 (let (($x6522 (= cell_8_9 9)))
 (let (($x5929 (= cell_8_9 8)))
 (let (($x1460 (= cell_8_9 7)))
 (let (($x9272 (= cell_8_9 6)))
 (let (($x1953 (= cell_8_9 5)))
 (let (($x9675 (= cell_8_9 4)))
 (let (($x2723 (= cell_8_9 3)))
 (let (($x3092 (= cell_8_9 2)))
 (let (($x3523 (= cell_8_9 1)))
 (or $x3523 $x3092 $x2723 $x9675 $x1953 $x9272 $x1460 $x5929 $x6522)))))))))))
(assert
 (let (($x7542 (= cell_9_9 9)))
 (let (($x3466 (= cell_9_9 8)))
 (let (($x1648 (= cell_9_9 7)))
 (let (($x6716 (= cell_9_9 6)))
 (let (($x1201 (= cell_9_9 5)))
 (let (($x3378 (= cell_9_9 4)))
 (let (($x4982 (= cell_9_9 3)))
 (let (($x8318 (= cell_9_9 2)))
 (let (($x3100 (= cell_9_9 1)))
 (or $x3100 $x8318 $x4982 $x3378 $x1201 $x6716 $x1648 $x3466 $x7542)))))))))))
(assert
 (and (distinct cell_1_1 cell_1_2 cell_1_3 cell_1_4 cell_1_5 cell_1_6 cell_1_7 cell_1_8 cell_1_9) true))
(assert
 (and (distinct cell_2_1 cell_2_2 cell_2_3 cell_2_4 cell_2_5 cell_2_6 cell_2_7 cell_2_8 cell_2_9) true))
(assert
 (and (distinct cell_3_1 cell_3_2 cell_3_3 cell_3_4 cell_3_5 cell_3_6 cell_3_7 cell_3_8 cell_3_9) true))
(assert
 (and (distinct cell_4_1 cell_4_2 cell_4_3 cell_4_4 cell_4_5 cell_4_6 cell_4_7 cell_4_8 cell_4_9) true))
(assert
 (and (distinct cell_5_1 cell_5_2 cell_5_3 cell_5_4 cell_5_5 cell_5_6 cell_5_7 cell_5_8 cell_5_9) true))
(assert
 (and (distinct cell_6_1 cell_6_2 cell_6_3 cell_6_4 cell_6_5 cell_6_6 cell_6_7 cell_6_8 cell_6_9) true))
(assert
 (and (distinct cell_7_1 cell_7_2 cell_7_3 cell_7_4 cell_7_5 cell_7_6 cell_7_7 cell_7_8 cell_7_9) true))
(assert
 (and (distinct cell_8_1 cell_8_2 cell_8_3 cell_8_4 cell_8_5 cell_8_6 cell_8_7 cell_8_8 cell_8_9) true))
(assert
 (and (distinct cell_9_1 cell_9_2 cell_9_3 cell_9_4 cell_9_5 cell_9_6 cell_9_7 cell_9_8 cell_9_9) true))
(assert
 (and (distinct cell_1_1 cell_2_1 cell_3_1 cell_4_1 cell_5_1 cell_6_1 cell_7_1 cell_8_1 cell_9_1) true))
(assert
 (and (distinct cell_1_2 cell_2_2 cell_3_2 cell_4_2 cell_5_2 cell_6_2 cell_7_2 cell_8_2 cell_9_2) true))
(assert
 (and (distinct cell_1_3 cell_2_3 cell_3_3 cell_4_3 cell_5_3 cell_6_3 cell_7_3 cell_8_3 cell_9_3) true))
(assert
 (and (distinct cell_1_4 cell_2_4 cell_3_4 cell_4_4 cell_5_4 cell_6_4 cell_7_4 cell_8_4 cell_9_4) true))
(assert
 (and (distinct cell_1_5 cell_2_5 cell_3_5 cell_4_5 cell_5_5 cell_6_5 cell_7_5 cell_8_5 cell_9_5) true))
(assert
 (and (distinct cell_1_6 cell_2_6 cell_3_6 cell_4_6 cell_5_6 cell_6_6 cell_7_6 cell_8_6 cell_9_6) true))
(assert
 (and (distinct cell_1_7 cell_2_7 cell_3_7 cell_4_7 cell_5_7 cell_6_7 cell_7_7 cell_8_7 cell_9_7) true))
(assert
 (and (distinct cell_1_8 cell_2_8 cell_3_8 cell_4_8 cell_5_8 cell_6_8 cell_7_8 cell_8_8 cell_9_8) true))
(assert
 (and (distinct cell_1_9 cell_2_9 cell_3_9 cell_4_9 cell_5_9 cell_6_9 cell_7_9 cell_8_9 cell_9_9) true))
(assert
 (and (distinct cell_1_1 cell_1_2 cell_1_3 cell_2_1 cell_2_2 cell_2_3 cell_3_1 cell_3_2 cell_3_3) true))
(assert
 (and (distinct cell_1_4 cell_1_5 cell_1_6 cell_2_4 cell_2_5 cell_2_6 cell_3_4 cell_3_5 cell_3_6) true))
(assert
 (and (distinct cell_1_7 cell_1_8 cell_1_9 cell_2_7 cell_2_8 cell_2_9 cell_3_7 cell_3_8 cell_3_9) true))
(assert
 (and (distinct cell_4_1 cell_4_2 cell_4_3 cell_5_1 cell_5_2 cell_5_3 cell_6_1 cell_6_2 cell_6_3) true))
(assert
 (and (distinct cell_4_4 cell_4_5 cell_4_6 cell_5_4 cell_5_5 cell_5_6 cell_6_4 cell_6_5 cell_6_6) true))
(assert
 (and (distinct cell_4_7 cell_4_8 cell_4_9 cell_5_7 cell_5_8 cell_5_9 cell_6_7 cell_6_8 cell_6_9) true))
(assert
 (and (distinct cell_7_1 cell_7_2 cell_7_3 cell_8_1 cell_8_2 cell_8_3 cell_9_1 cell_9_2 cell_9_3) true))
(assert
 (and (distinct cell_7_4 cell_7_5 cell_7_6 cell_8_4 cell_8_5 cell_8_6 cell_9_4 cell_9_5 cell_9_6) true))
(assert
 (and (distinct cell_7_7 cell_7_8 cell_7_9 cell_8_7 cell_8_8 cell_8_9 cell_9_7 cell_9_8 cell_9_9) true))
(assert
 (let (($x242 (and (distinct cell_5_9 cell_6_8 cell_7_7 cell_8_6) true)))
 (let (($x5492 (and (distinct cell_2_9 cell_3_8 cell_4_7 cell_5_6 cell_6_5 cell_7_4 cell_8_3 cell_9_2) true)))
 (let (($x3106 (and (distinct cell_1_8 cell_2_7 cell_3_6 cell_4_5 cell_5_4 cell_6_3 cell_7_2 cell_8_1) true)))
 (let (($x1400 (and (distinct cell_1_5 cell_2_4 cell_3_3 cell_4_2) true)))
 (let (($x840 (and (distinct cell_5_1 cell_6_2 cell_7_3 cell_8_4) true)))
 (let (($x6729 (and (distinct cell_2_1 cell_3_2 cell_4_3 cell_5_4 cell_6_5 cell_7_6 cell_8_7 cell_9_8) true)))
 (let (($x2897 (and (distinct cell_1_2 cell_2_3 cell_3_4 cell_4_5 cell_5_6 cell_6_7 cell_7_8 cell_8_9) true)))
 (let (($x8322 (and (distinct cell_1_5 cell_2_6 cell_3_7 cell_4_8) true)))
 (and $x8322 $x2897 $x6729 $x840 $x1400 $x3106 $x5492 $x242))))))))))
(assert
 (= cell_1_4 1))
(assert
 (= cell_2_2 1))
(assert
 (= cell_3_7 1))
(assert
 (= cell_4_3 1))
(assert
 (= cell_5_5 1))
(assert
 (= cell_6_8 1))
(assert
 (= cell_7_1 1))
(assert
 (= cell_8_9 1))
(assert
 (= cell_9_6 1))
(assert
 (= cell_1_6 2))
(assert
 (= cell_2_3 2))
(assert
 (= cell_3_8 2))
(assert
 (= cell_4_1 2))
(assert
 (= cell_5_9 2))
(assert
 (= cell_6_4 2))
(assert
 (= cell_7_2 2))
(assert
 (= cell_8_7 2))
(assert
 (= cell_9_5 2))
(assert
 (= cell_1_7 3))
(assert
 (= cell_2_5 3))
(check-sat)

